c nIsolatedPIs 6
c maxPI 26
p cnf 145 358
c gate 27 13 -26 0
13 -27 0
-26 -27 0
-13 26 27 0
c gate 28 -13 26 0
-13 -28 0
26 -28 0
13 -26 28 0
c gate 29 11 -24 0
11 -29 0
-24 -29 0
-11 24 29 0
c gate 30 -12 25 0
-12 -30 0
25 -30 0
12 -25 30 0
c gate 31 29 30 0
29 -31 0
30 -31 0
-29 -30 31 0
c gate 32 6 -19 0
6 -32 0
-19 -32 0
-6 19 32 0
c gate 33 -5 18 0
-5 -33 0
18 -33 0
5 -18 33 0
c gate 34 -5 -18 0
-5 -34 0
-18 -34 0
5 18 34 0
c gate 35 5 18 0
5 -35 0
18 -35 0
-5 -18 35 0
c gate 36 -34 -35 0
-34 -36 0
-35 -36 0
34 35 36 0
c gate 37 14 -36 0
14 -37 0
-36 -37 0
-14 36 37 0
c gate 38 -1 37 0
-1 -38 0
37 -38 0
1 -37 38 0
c gate 39 -33 -38 0
-33 -39 0
-38 -39 0
33 38 39 0
c gate 40 -32 -39 0
-32 -40 0
-39 -40 0
32 39 40 0
c gate 41 -7 20 0
-7 -41 0
20 -41 0
7 -20 41 0
c gate 42 -6 19 0
-6 -42 0
19 -42 0
6 -19 42 0
c gate 43 -41 -42 0
-41 -43 0
-42 -43 0
41 42 43 0
c gate 44 -40 43 0
-40 -44 0
43 -44 0
40 -43 44 0
c gate 45 8 -21 0
8 -45 0
-21 -45 0
-8 21 45 0
c gate 46 7 -20 0
7 -46 0
-20 -46 0
-7 20 46 0
c gate 47 -45 -46 0
-45 -47 0
-46 -47 0
45 46 47 0
c gate 48 -44 47 0
-44 -48 0
47 -48 0
44 -47 48 0
c gate 49 -8 21 0
-8 -49 0
21 -49 0
8 -21 49 0
c gate 50 9 -22 0
9 -50 0
-22 -50 0
-9 22 50 0
c gate 51 -9 22 0
-9 -51 0
22 -51 0
9 -22 51 0
c gate 52 -50 -51 0
-50 -52 0
-51 -52 0
50 51 52 0
c gate 53 -49 52 0
-49 -53 0
52 -53 0
49 -52 53 0
c gate 54 -48 53 0
-48 -54 0
53 -54 0
48 -53 54 0
c gate 55 10 23 0
10 -55 0
23 -55 0
-10 -23 55 0
c gate 56 -10 -23 0
-10 -56 0
-23 -56 0
10 23 56 0
c gate 57 -55 -56 0
-55 -57 0
-56 -57 0
55 56 57 0
c gate 58 54 -57 0
54 -58 0
-57 -58 0
-54 57 58 0
c gate 59 10 -23 0
10 -59 0
-23 -59 0
-10 23 59 0
c gate 60 50 -57 0
50 -60 0
-57 -60 0
-50 57 60 0
c gate 61 -59 -60 0
-59 -61 0
-60 -61 0
59 60 61 0
c gate 62 -58 61 0
-58 -62 0
61 -62 0
58 -61 62 0
c gate 63 -11 24 0
-11 -63 0
24 -63 0
11 -24 63 0
c gate 64 -62 -63 0
-62 -64 0
-63 -64 0
62 63 64 0
c gate 65 12 -25 0
12 -65 0
-25 -65 0
-12 25 65 0
c gate 66 -29 -65 0
-29 -66 0
-65 -66 0
29 65 66 0
c gate 67 -2 -15 0
-2 -67 0
-15 -67 0
2 15 67 0
c gate 68 2 15 0
2 -68 0
15 -68 0
-2 -15 68 0
c gate 69 -67 -68 0
-67 -69 0
-68 -69 0
67 68 69 0
c gate 70 -30 69 0
-30 -70 0
69 -70 0
30 -69 70 0
c gate 71 66 70 0
66 -71 0
70 -71 0
-66 -70 71 0
c gate 72 64 71 0
64 -72 0
71 -72 0
-64 -71 72 0
c gate 73 -31 -72 0
-31 -73 0
-72 -73 0
31 72 73 0
c gate 74 -28 -73 0
-28 -74 0
-73 -74 0
28 73 74 0
c gate 75 -64 66 0
-64 -75 0
66 -75 0
64 -66 75 0
c gate 76 -28 -30 0
-28 -76 0
-30 -76 0
28 30 76 0
c gate 77 -75 76 0
-75 -77 0
76 -77 0
75 -76 77 0
c gate 78 -69 -77 0
-69 -78 0
-77 -78 0
69 77 78 0
c gate 79 -74 -78 0
-74 -79 0
-78 -79 0
74 78 79 0
c gate 80 -27 -79 0
-27 -80 0
-79 -80 0
27 79 80 0
c gate 81 -8 -21 0
-8 -81 0
-21 -81 0
8 21 81 0
c gate 82 6 19 0
6 -82 0
19 -82 0
-6 -19 82 0
c gate 83 34 -82 0
34 -83 0
-82 -83 0
-34 82 83 0
c gate 84 1 14 0
1 -84 0
14 -84 0
-1 -14 84 0
c gate 85 -35 -82 0
-35 -85 0
-82 -85 0
35 82 85 0
c gate 86 -84 85 0
-84 -86 0
85 -86 0
84 -85 86 0
c gate 87 -7 -20 0
-7 -87 0
-20 -87 0
7 20 87 0
c gate 88 -6 -19 0
-6 -88 0
-19 -88 0
6 19 88 0
c gate 89 -87 -88 0
-87 -89 0
-88 -89 0
87 88 89 0
c gate 90 -86 89 0
-86 -90 0
89 -90 0
86 -89 90 0
c gate 91 -83 90 0
-83 -91 0
90 -91 0
83 -90 91 0
c gate 92 8 21 0
8 -92 0
21 -92 0
-8 -21 92 0
c gate 93 7 20 0
7 -93 0
20 -93 0
-7 -20 93 0
c gate 94 -92 -93 0
-92 -94 0
-93 -94 0
92 93 94 0
c gate 95 -91 94 0
-91 -95 0
94 -95 0
91 -94 95 0
c gate 96 -81 -95 0
-81 -96 0
-95 -96 0
81 95 96 0
c gate 97 -52 -96 0
-52 -97 0
-96 -97 0
52 96 97 0
c gate 98 -9 -22 0
-9 -98 0
-22 -98 0
9 22 98 0
c gate 99 -56 -98 0
-56 -99 0
-98 -99 0
56 98 99 0
c gate 100 -97 99 0
-97 -100 0
99 -100 0
97 -99 100 0
c gate 101 11 24 0
11 -101 0
24 -101 0
-11 -24 101 0
c gate 102 -55 -101 0
-55 -102 0
-101 -102 0
55 101 102 0
c gate 103 -100 102 0
-100 -103 0
102 -103 0
100 -102 103 0
c gate 104 -11 -24 0
-11 -104 0
-24 -104 0
11 24 104 0
c gate 105 -12 -25 0
-12 -105 0
-25 -105 0
12 25 105 0
c gate 106 -104 -105 0
-104 -106 0
-105 -106 0
104 105 106 0
c gate 107 -103 106 0
-103 -107 0
106 -107 0
103 -106 107 0
c gate 108 13 26 0
13 -108 0
26 -108 0
-13 -26 108 0
c gate 109 12 25 0
12 -109 0
25 -109 0
-12 -25 109 0
c gate 110 -108 -109 0
-108 -110 0
-109 -110 0
108 109 110 0
c gate 111 -107 110 0
-107 -111 0
110 -111 0
107 -110 111 0
c gate 112 -13 -26 0
-13 -112 0
-26 -112 0
13 26 112 0
c gate 113 -67 -112 0
-67 -113 0
-112 -113 0
67 112 113 0
c gate 114 -111 113 0
-111 -114 0
113 -114 0
111 -113 114 0
c gate 115 3 16 0
3 -115 0
16 -115 0
-3 -16 115 0
c gate 116 -68 -115 0
-68 -116 0
-115 -116 0
68 115 116 0
c gate 117 -114 116 0
-114 -117 0
116 -117 0
114 -116 117 0
c gate 118 -3 -16 0
-3 -118 0
-16 -118 0
3 16 118 0
c gate 119 4 17 0
4 -119 0
17 -119 0
-4 -17 119 0
c gate 120 115 -119 0
115 -120 0
-119 -120 0
-115 119 120 0
c gate 121 -118 -120 0
-118 -121 0
-120 -121 0
118 120 121 0
c gate 122 -117 121 0
-117 -122 0
121 -122 0
117 -121 122 0
c gate 123 -101 -104 0
-101 -123 0
-104 -123 0
101 104 123 0
c gate 124 -62 -123 0
-62 -124 0
-123 -124 0
62 123 124 0
c gate 125 -56 -104 0
-56 -125 0
-104 -125 0
56 104 125 0
c gate 126 103 125 0
103 -126 0
125 -126 0
-103 -125 126 0
c gate 127 -81 90 0
-81 -127 0
90 -127 0
81 -90 127 0
c gate 128 95 127 0
95 -128 0
127 -128 0
-95 -127 128 0
c gate 129 10 -123 0
10 -129 0
-123 -129 0
-10 123 129 0
c gate 130 -98 -129 0
-98 -130 0
-129 -130 0
98 129 130 0
c gate 131 57 -130 0
57 -131 0
-130 -131 0
-57 130 131 0
c gate 132 1 37 0
1 -132 0
37 -132 0
-1 -37 132 0
c gate 133 -4 -17 0
-4 -133 0
-17 -133 0
4 17 133 0
c gate 134 115 133 0
115 -134 0
133 -134 0
-115 -133 134 0
c gate 135 -31 -134 0
-31 -135 0
-134 -135 0
31 134 135 0
c gate 136 -60 135 0
-60 -136 0
135 -136 0
60 -135 136 0
c gate 137 -132 136 0
-132 -137 0
136 -137 0
132 -136 137 0
c gate 138 -131 137 0
-131 -138 0
137 -138 0
131 -137 138 0
c gate 139 -128 138 0
-128 -139 0
138 -139 0
128 -138 139 0
c gate 140 -97 139 0
-97 -140 0
139 -140 0
97 -139 140 0
c gate 141 -54 140 0
-54 -141 0
140 -141 0
54 -140 141 0
c gate 142 -126 141 0
-126 -142 0
141 -142 0
126 -141 142 0
c gate 143 -124 142 0
-124 -143 0
142 -143 0
124 -142 143 0
c gate 144 -122 143 0
-122 -144 0
143 -144 0
122 -143 144 0
c gate 145 -80 144 0
-80 -145 0
144 -145 0
80 -144 145 0
c PO
-145 0
